sat
(:added-eqs                       3732942
 :arith-eq-adapter                11289
 :arith-bound-propagations-lp     22234
 :arith-branch                    36
 :arith-conflicts                 35920
 :arith-cube-calls                21
 :arith-diseq                     415999
 :arith-fixed-eqs                 231853
 :arith-gcd-calls                 529
 :arith-gomory-cuts               27
 :arith-hnf-calls                 1
 :arith-horner-calls              360
 :arith-horner-conflicts          29
 :arith-horner-cross-nested-forms 24608
 :arith-lower                     442477
 :arith-make-feasible             200787
 :arith-max-columns               14699
 :arith-max-rows                  5700
 :arith-nla-lemmas                15761
 :arith-nla-propagate-bounds      17717
 :arith-nla-propagate-eq          3069435
 :arith-nra-calls                 316
 :arith-offset-eqs                232511
 :arith-patches                   529
 :arith-patches-success           443
 :arith-upper                     368465
 :binary-propagations             910627
 :conflicts                       3950
 :decisions                       447515
 :del-clause                      37139
 :final-checks                    3794
 :max-memory                      184.17
 :memory                          100.12
 :minimized-lits                  6604
 :mk-bool-var                     79679
 :mk-clause                       57900
 :mk-clause-binary                17886
 :nlsat-conflicts                 21992
 :nlsat-decisions                 381
 :nlsat-propagations              3591700
 :nlsat-stages                    1189264
 :num-allocs                      2640433051626.00
 :num-checks                      2
 :propagations                    1836105
 :restarts                        31
 :rlimit-count                    83313127
 :time                            47.29
 :total-time                      47.32)
